6846
11792
6125
10472
1145
6660
4236
6612
272
1924
2506
2070
2994
102
1411
7966
6202
13616
1450
8500
9429
6272
2864
12240
7260
2460
2400
6150
970
582
3597
2844
4056
252
2670
5334
5226
1599
3423
9873
1050
15140
5712
1980
2040
6804
7010
9720
1154
9630
11538
